Optimal - objective value 10383.43744325
      0 C0000000   2.220446e-016               1241.4465
      1 C0000001              -1                      -0
      2 C0000002               1               52.979435
      3 C0000003   2.220446e-016                25.11588
      4 C0000004               1                      -0
      5 C0000005              -1                      -0
      6 C0000006               1               59.744821
      7 C0000007              -1                      -0
      8 C0000008               1               22.519243
      9 C0000009              -1                      -0
     10 C0000010               1               75.161176
     11 C0000011              -1                      -0
     12 C0000012               1               47.704116
     13 C0000013              -1                      -0
     14 C0000014               1               15.090661
     15 C0000015              -1                      -0
     16 C0000016               1               46.899828
     17 C0000017              -1                      -0
     18 C0000018               1               118.58301
     19 C0000019              -1                      -0
     20 C0000020               1                2.462589
     21 C0000021              -1                      -0
     22 C0000022               1               135.88411
     23 C0000023              -1                      -0
     24 C0000024               1                31.62242
     25 C0000025               0               356.82304
     26 C0000026  -2.220446e-016               41.274688
     27 C0000027               1                      -0
     28 C0000028              -1                      -0
     29 C0000029               1                3.461575
     30 C0000030              -1                      -0
     31 C0000031               1               19.779845
     32 C0000032              -1                      -0
     33 C0000033               1               21.821448
     34 C0000034              -1                      -0
     35 C0000035               1                1.959888
     36 C0000036              -1                      -0
     37 C0000037               1               6.1998854
     38 C0000038              -1                      -0
     39 C0000039               1                11.77516
     40 C0000040              -1                      -0
     41 C0000041               1               12.179736
     42 C0000042              -1                      -0
     43 C0000043               1               4.7214362
     44 C0000044              -1                      -0
     45 C0000045               1               44.510695
     46 C0000046               0               33.564787
     47 C0000047               1                      -0
     48 C0000048               0               5.0877466
     49 C0000049               1                      -0
     50 C0000050               0                 870.582
     51 C0000051               0               27.612154
     52 C0000052               1                      -0
     53 C0000053               0               2.0994797
     54 C0000054               1                      -0
     55 C0000055               0               7.2253171
     56 C0000056               1                      -0
     57 C0000057               0               59.472654
     58 C0000058               1                      -0
     59 C0000059               0               26.444687
     60 C0000060               1                      -0
     61 C0000061               0                17.61143
     62 C0000062               1                      -0
     63 C0000063               0               56.578401
     64 C0000064               1                      -0
     65 C0000065               0               25.152678
     66 C0000066               1                      -0
     67 C0000067               0               8.2744968
     68 C0000068               1                      -0
     69 C0000069              -1                      -0
     70 C0000070               1               39.986294
     71 C0000071              -1                      -0
     72 C0000072               1               23.778231
     73 C0000073  -1.110223e-016               107.34388
     74 C0000074               1                      -0
     75 C0000075               0                616.7779
     76 C0000076              -1                      -0
     77 C0000077               1                11.88044
     78 C0000078              -1                      -0
     79 C0000079               1               54.066748
     80 C0000080              -1                      -0
     81 C0000081               1               12.804356
     82 C0000082              -1                      -0
     83 C0000083               1                68.85874
     84 C0000084              -1                      -0
     85 C0000085               1               18.183353
     86 C0000086              -1                      -0
     87 C0000087               1               84.253497
     88 C0000088              -1                      -0
     89 C0000089               1               11.236803
     90 C0000090              -1                      -0
     91 C0000091               1               99.068345
     92 C0000092              -1                      -0
     93 C0000093               1               2.4180836
     94 C0000094              -1                      -0
     95 C0000095               1                 3.38338
     96 C0000096   1.110223e-016               142.99865
     97 C0000097               1                      -0
     98 C0000098              -1                      -0
     99 C0000099               1               44.757952
    100 C0000100   1.110223e-016               756.25645
    101 C0000101              -1                      -0
    102 C0000102               1               71.247307
    103 C0000103              -1                      -0
    104 C0000104               1               9.2917848
    105 C0000105              -1                      -0
    106 C0000106               1               16.329732
    107 C0000107              -1                      -0
    108 C0000108               1               29.604575
    109 C0000109              -1                      -0
    110 C0000110               1               44.157063
    111 C0000111              -1                      -0
    112 C0000112               1               37.573516
    113 C0000113              -1                      -0
    114 C0000114               1               50.073539
    115 C0000115              -1                      -0
    116 C0000116               1               34.391204
    117 C0000117              -1                      -0
    118 C0000118               1               1.8796928
    119 C0000119               0               31.778108
    120 C0000120               1                      -0
    121 C0000121              -1                      -0
    122 C0000122               1               11.935691
    123 C0000123              -1                      -0
    124 C0000124               1                8.403016
    125 C0000125   2.220446e-016               433.78216
    126 C0000126              -1                      -0
    127 C0000127               1                0.688294
    128 C0000128              -1                      -0
    129 C0000129               1                31.20855
    130 C0000130              -1                      -0
    131 C0000131               1               11.654095
    132 C0000132              -1                      -0
    133 C0000133               1               34.722482
    134 C0000134              -1                      -0
    135 C0000135               1               10.304053
    136 C0000136              -1                      -0
    137 C0000137               1                47.69003
    138 C0000138              -1                      -0
    139 C0000139               1               38.127623
    140 C0000140              -1                      -0
    141 C0000141               1               70.744259
    142 C0000142   2.220446e-016               172.84775
    143 C0000143               1                      -0
    144 C0000144              -1                      -0
    145 C0000145               1               21.478742
    146 C0000146              -1                      -0
    147 C0000147               1               50.808428
    148 C0000148              -1                      -0
    149 C0000149               1               5.3527403
    150 C0000150   2.220446e-016               2123.3348
    151 C0000151              -1                      -0
    152 C0000152               1               174.64021
    153 C0000153              -1                      -0
    154 C0000154               1               74.223485
    155 C0000155              -1                      -0
    156 C0000156               1               193.27492
    157 C0000157              -1                      -0
    158 C0000158               1               2.1922221
    159 C0000159              -1                      -0
    160 C0000160               1               36.780032
    161 C0000161              -1                      -0
    162 C0000162               1               81.394945
    163 C0000163              -1                      -0
    164 C0000164               1               6.7433518
    165 C0000165               0               51.668109
    166 C0000166               1                      -0
    167 C0000167              -1                      -0
    168 C0000168               1               16.519675
    169 C0000169              -1                      -0
    170 C0000170               1               3.3495126
    171 C0000171              -1                      -0
    172 C0000172               1               7.7809143
    173 C0000173              -1                      -0
    174 C0000174               1               83.679727
    175 C0000175  -1.110223e-016               1446.5104
    176 C0000176              -1                      -0
    177 C0000177               1               17.982271
    178 C0000178              -1                      -0
    179 C0000179               1               10.530946
    180 C0000180              -1                      -0
    181 C0000181               1               25.493473
    182 C0000182              -1                      -0
    183 C0000183               1               93.464093
    184 C0000184              -1                      -0
    185 C0000185               1               27.399451
    186 C0000186              -1                      -0
    187 C0000187               1               42.530422
    188 C0000188               0               62.627744
    189 C0000189               1                      -0
    190 C0000190              -1                      -0
    191 C0000191               1               16.376882
    192 C0000192              -1                      -0
    193 C0000193               1                2.677871
    194 C0000194              -1                      -0
    195 C0000195               1               31.794646
    196 C0000196              -1                      -0
    197 C0000197               1               6.5803608
    198 C0000198              -1                      -0
    199 C0000199               1               9.2516586
    200 C0000200               0               599.02003
    201 C0000201              -1                      -0
    202 C0000202               1               80.584627
    203 C0000203              -1                      -0
    204 C0000204               1               13.587695
    205 C0000205              -1                      -0
    206 C0000206               1               44.327054
    207 C0000207              -1                      -0
    208 C0000208               1               21.523743
    209 C0000209              -1                      -0
    210 C0000210               1               22.308147
    211 C0000211  -2.220446e-016               66.992292
    212 C0000212               1                      -0
    213 C0000213              -1                      -0
    214 C0000214               1               26.067991
    215 C0000215              -1                      -0
    216 C0000216               1               17.452187
    217 C0000217              -1                      -0
    218 C0000218               1               7.7221738
    219 C0000219              -1                      -0
    220 C0000220               1               18.379476
    221 C0000221              -1                      -0
    222 C0000222               1               8.6135418
    223 C0000223              -1                      -0
    224 C0000224               1               13.942592
    225 C0000225   2.220446e-016               1119.7977
    226 C0000226              -1                      -0
    227 C0000227               1               39.532836
    228 C0000228              -1                      -0
    229 C0000229               1               74.285412
    230 C0000230              -1                      -0
    231 C0000231               1               26.813481
    232 C0000232              -1                      -0
    233 C0000233               1               30.584832
    234 C0000234  -2.220446e-016               59.870976
    235 C0000235               1                      -0
    236 C0000236              -1                      -0
    237 C0000237               1               11.508613
    238 C0000238              -1                      -0
    239 C0000239               1                24.79317
    240 C0000240              -1                      -0
    241 C0000241               1               22.586081
    242 C0000242              -1                      -0
    243 C0000243               1                41.06432
    244 C0000244              -1                      -0
    245 C0000245               1               41.726213
    246 C0000246              -1                      -0
    247 C0000247               1               13.457326
    248 C0000248              -1                      -0
    249 C0000249               1               65.504461
    250 C0000250               0               385.42336
    251 C0000251              -1                      -0
    252 C0000252               1               51.731558
    253 C0000253              -1                      -0
    254 C0000254               1                54.83284
    255 C0000255              -1                      -0
    256 C0000256               1                2.645588
    257 C0000257               0                7.356306
    258 C0000258               1                      -0
    259 C0000259              -1                      -0
    260 C0000260               1                35.58117
    261 C0000261              -1                      -0
    262 C0000262               1               30.158567
    263 C0000263              -1                      -0
    264 C0000264               1               37.394963
    265 C0000265              -1                      -0
    266 C0000266               1               98.085395
    267 C0000267              -1                      -0
    268 C0000268               1               105.98114
    269 C0000269              -1                      -0
    270 C0000270               1               34.392644
    271 C0000271              -1                      -0
    272 C0000272               1               91.632041
    273 C0000273              -1                      -0
    274 C0000274               1               15.002604
    275 C0000275               0               1398.3687
    276 C0000276      0.92965869                      -0
      0 X0000000               1                      -0
      1 X0000001               0                      -0
      2 X0000002               0                      -0
      3 X0000003               0                      -0
      4 X0000004               1                      -0
      5 X0000005               0                      -0
      6 X0000006               0                      -0
      7 X0000007               0                      -0
      8 X0000008               0                      -0
      9 X0000009               0                      -0
     10 X0000010               0                      -0
     11 X0000011               0                      -0
     12 X0000012               0                      -0
     13 X0000013               1                      -0
     14 X0000014               0                      -0
     15 X0000015               0                      -0
     16 X0000016               1                      -0
     17 X0000017               0                      -0
     18 X0000018               0                      -0
     19 X0000019               0                      -0
     20 X0000020               0                      -0
     21 X0000021               0                      -0
     22 X0000022               0                      -0
     23 X0000023               0                      -0
     24 X0000024               0                      -0
     25 X0000025               0                      -0
     26 X0000026               1                      -0
     27 X0000027               0                      -0
     28 X0000028               1                      -0
     29 X0000029               0                      -0
     30 X0000030               0                      -0
     31 X0000031               0                      -0
     32 X0000032               0                      -0
     33 X0000033               0                      -0
     34 X0000034               0                      -0
     35 X0000035               0                      -0
     36 X0000036               0                      -0
     37 X0000037               0                      -0
     38 X0000038               0                      -0
     39 X0000039               1                      -0
     40 X0000040               1                      -0
     41 X0000041               0                      -0
     42 X0000042               0                      -0
     43 X0000043               0                      -0
     44 X0000044               0                      -0
     45 X0000045               0                      -0
     46 X0000046               0                      -0
     47 X0000047               0                      -0
     48 X0000048               0                      -0
     49 X0000049               0                      -0
     50 X0000050               0                      -0
     51 X0000051               0                      -0
     52 X0000052               0                      -0
     53 X0000053               0                      -0
     54 X0000054               0                      -0
     55 X0000055               0                      -0
     56 X0000056               0                      -0
     57 X0000057               0                      -0
     58 X0000058               0                      -0
     59 X0000059               0                      -0
     60 X0000060               0                      -0
     61 X0000061               0                      -0
     62 X0000062               0                      -0
     63 X0000063               0                      -0
     64 X0000064               1                      -0
     65 X0000065               1                      -0
     66 X0000066               0                      -0
     67 X0000067               0                      -0
     68 X0000068               0                      -0
     69 X0000069               0                      -0
     70 X0000070               0                      -0
     71 X0000071               0                      -0
     72 X0000072               0                      -0
     73 X0000073               0                      -0
     74 X0000074               0                      -0
     75 X0000075               0                      -0
     76 X0000076               1                      -0
     77 X0000077               0                      -0
     78 X0000078               1                      -0
     79 X0000079               0                      -0
     80 X0000080               0                      -0
     81 X0000081               0                      -0
     82 X0000082               0                      -0
     83 X0000083               0                      -0
     84 X0000084               0                      -0
     85 X0000085               0                      -0
     86 X0000086               0                      -0
     87 X0000087               0                      -0
     88 X0000088               1                      -0
     89 X0000089               0                      -0
     90 X0000090               0                      -0
     91 X0000091               1                      -0
     92 X0000092               0                      -0
     93 X0000093               0                      -0
     94 X0000094               0                      -0
     95 X0000095               0                      -0
     96 X0000096               0                      -0
     97 X0000097               0                      -0
     98 X0000098               0                      -0
     99 X0000099               0                      -0
    100 X0000100               1                      -0
    101 X0000101               0                      -0
    102 X0000102               0                      -0
    103 X0000103               0                      -0
    104 X0000104               1                      -0
    105 X0000105               0                      -0
    106 X0000106               0                      -0
    107 X0000107               0                      -0
    108 X0000108               0                      -0
    109 X0000109               0                      -0
    110 X0000110               0                      -0
    111 X0000111               0                      -0
    112 X0000112               1                      -0
    113 X0000113               0                      -0
    114 X0000114               0                      -0
    115 X0000115               0                      -0
    116 X0000116               0                      -0
    117 X0000117               1                      -0
    118 X0000118               0                      -0
    119 X0000119               0                      -0
    120 X0000120               0                      -0
    121 X0000121               0                      -0
    122 X0000122               0                      -0
    123 X0000123               0                      -0
    124 X0000124               1                      -0
    125 X0000125               0                      -0
    126 X0000126               0                      -0
    127 X0000127               0                      -0
    128 X0000128               0                      -0
    129 X0000129               0                      -0
    130 X0000130               1                      -0
    131 X0000131               0                      -0
    132 X0000132               0                      -0
    133 X0000133               0                      -0
    134 X0000134               0                      -0
    135 X0000135               0                      -0
    136 X0000136               1                      -0
    137 X0000137               0                      -0
    138 X0000138               0                      -0
    139 X0000139               0                      -0
    140 X0000140               0                      -0
    141 X0000141               0                      -0
    142 X0000142               0                      -0
    143 X0000143               1                      -0
    144 X0000144               1               810.93563
    145 X0000145               1               80.334898
    146 X0000146               1               246.72834
    147 X0000147               1               631.92762
    148 X0000148               0               1028.2806
    149 X0000149               1                379.8557
    150 X0000150               1               658.54025
    151 X0000151               1               108.24171
    152 X0000152               1               1916.6281
    153 X0000153               1               839.33787
    154 X0000154               1               333.69585
    155 X0000155               1                341.3422
